************************************************************************
file with basedata            : mm28_.bas
initial value random generator: 21149
************************************************************************
projects                      :  1
jobs (incl. supersource/sink ):  12
horizon                       :  84
RESOURCES
  - renewable                 :  2   R
  - nonrenewable              :  2   N
  - doubly constrained        :  0   D
************************************************************************
PROJECT INFORMATION:
pronr.  #jobs rel.date duedate tardcost  MPM-Time
    1     10      0       19        2       19
************************************************************************
PRECEDENCE RELATIONS:
jobnr.    #modes  #successors   successors
   0        1          3           1   2   3
   1        3          2           9  10
   2        3          2           4   5
   3        3          2           5   6
   4        3          2           7  10
   5        3          1           8
   6        3          1           8
   7        3          2           8   9
   8        3          1          11
   9        3          1          11
  10        3          1          11
  11        1          0        
************************************************************************
REQUESTS/DURATIONS:
jobnr. mode duration  R 1  R 2  R 3  R 4  E(W 1)  E(W 2)
------------------------------------------------------------------------
  0      1     0       0    0    0    0     0       0
  1      1     4       1    0    0    7     8      28
  2      1     1       4    0    0    7     4       7
  3      1     2       9    0    4    0    18       8
  4      1     5       0    5    0   10    25      50
  5      1     1       9    0    8    0     9       8
  6      1     5       0    7    9    0    35      45
  7      1     7       4    0    9    0    28      63
  8      1     4       4    0    0    5    16      20
  9      1     6       5    0    4    0    30      24
 10      1     3       0    6    9    0    18      27
 11      1     0       0    0    0    0     0       0
************************************************************************
RESOURCEAVAILABILITIES:
  R 1  R 2
   38   118
************************************************************************
RESOURCE LIMITS:
jobnr.  l(R 1)  u(R 1)  l(R 2)  u(R 2)
------------------------------------------------------------------------
  0        0       0       0       0
  1        1       2       4       7
  2        2       4       4       7
  3        5       9       2       4
  4        3       5       5      10
  5        5       9       4       8
  6        4       7       5       9
  7        2       4       5       9
  8        2       4       3       5
  9        3       5       2       4
 10        3       6       5       9
 11        0       0       0       0
************************************************************************
SCENARIOS:
------------------------------------------------------------------------
RESOURCE k = 1
s = 1: (0, 6, 4, 15, 18, 7, 47, 31, 21, 20, 20, 0)
s = 2: (0, 11, 5, 18, 15, 13, 30, 26, 12, 30, 17, 0)
s = 3: (0, 6, 5, 19, 22, 10, 47, 28, 21, 21, 21, 0)
s = 4: (0, 9, 7, 14, 20, 11, 35, 21, 23, 35, 20, 0)
s = 5: (0, 6, 4, 18, 26, 6, 45, 40, 17, 43, 14, 0)
s = 6: (0, 10, 4, 20, 35, 10, 36, 18, 21, 31, 15, 0)
s = 7: (0, 9, 6, 19, 25, 12, 34, 26, 16, 24, 19, 0)
s = 8: (0, 7, 5, 16, 40, 13, 43, 37, 14, 18, 25, 0)
s = 9: (0, 10, 5, 12, 27, 10, 33, 38, 17, 38, 22, 0)
s = 10: (0, 12, 4, 17, 34, 10, 21, 46, 19, 39, 17, 0)
s = 11: (0, 7, 3, 25, 26, 10, 31, 33, 13, 22, 16, 0)
s = 12: (0, 6, 3, 12, 26, 13, 44, 22, 10, 30, 16, 0)
s = 13: (0, 8, 3, 15, 23, 13, 26, 51, 17, 21, 13, 0)
s = 14: (0, 10, 5, 12, 18, 12, 34, 25, 24, 34, 20, 0)
s = 15: (0, 11, 5, 26, 19, 11, 21, 25, 13, 46, 18, 0)
s = 16: (0, 7, 3, 14, 21, 8, 44, 25, 18, 24, 12, 0)
s = 17: (0, 12, 6, 16, 20, 9, 34, 26, 19, 19, 16, 0)
s = 18: (0, 8, 5, 13, 26, 14, 55, 23, 22, 28, 21, 0)
s = 19: (0, 11, 4, 28, 29, 12, 22, 25, 14, 18, 26, 0)
s = 20: (0, 9, 5, 11, 23, 10, 27, 22, 20, 34, 13, 0)
s = 21: (0, 7, 5, 13, 29, 14, 34, 39, 14, 33, 14, 0)
s = 22: (0, 7, 5, 25, 18, 6, 36, 39, 12, 44, 21, 0)
s = 23: (0, 13, 4, 13, 23, 8, 54, 29, 24, 23, 11, 0)
s = 24: (0, 8, 6, 17, 25, 6, 41, 37, 15, 18, 18, 0)
s = 25: (0, 8, 3, 15, 21, 9, 49, 16, 15, 60, 26, 0)
s = 26: (0, 11, 5, 23, 30, 7, 53, 18, 23, 22, 14, 0)
s = 27: (0, 11, 6, 19, 13, 11, 55, 23, 20, 35, 24, 0)
s = 28: (0, 8, 6, 24, 15, 6, 64, 52, 14, 22, 20, 0)
s = 29: (0, 8, 4, 17, 33, 11, 35, 26, 16, 30, 19, 0)
s = 30: (0, 7, 5, 19, 36, 11, 29, 29, 23, 34, 31, 0)
s = 31: (0, 8, 6, 34, 28, 11, 33, 28, 14, 20, 12, 0)
s = 32: (0, 6, 5, 10, 15, 7, 55, 36, 14, 21, 14, 0)
s = 33: (0, 10, 5, 22, 24, 14, 37, 37, 24, 46, 22, 0)
s = 34: (0, 7, 4, 24, 19, 11, 29, 34, 16, 41, 15, 0)
s = 35: (0, 10, 5, 20, 19, 13, 32, 26, 22, 26, 22, 0)
s = 36: (0, 7, 4, 12, 23, 8, 37, 30, 22, 19, 21, 0)
s = 37: (0, 8, 3, 26, 37, 8, 36, 35, 10, 52, 13, 0)
s = 38: (0, 8, 5, 15, 28, 9, 20, 30, 12, 28, 18, 0)
s = 39: (0, 10, 4, 28, 22, 8, 48, 23, 23, 18, 18, 0)
s = 40: (0, 9, 8, 23, 17, 6, 35, 28, 19, 32, 19, 0)
s = 41: (0, 8, 4, 18, 19, 8, 49, 23, 11, 21, 19, 0)
s = 42: (0, 7, 4, 21, 22, 9, 46, 28, 9, 22, 17, 0)
s = 43: (0, 8, 3, 24, 15, 13, 26, 21, 14, 27, 17, 0)
s = 44: (0, 7, 4, 16, 20, 10, 25, 17, 18, 51, 20, 0)
s = 45: (0, 7, 5, 23, 19, 13, 44, 23, 15, 40, 18, 0)
s = 46: (0, 10, 5, 14, 37, 11, 37, 22, 19, 20, 15, 0)
s = 47: (0, 9, 7, 23, 35, 7, 38, 34, 10, 21, 26, 0)
s = 48: (0, 6, 4, 14, 20, 10, 29, 26, 17, 43, 20, 0)
s = 49: (0, 10, 3, 12, 23, 13, 25, 31, 25, 22, 16, 0)
s = 50: (0, 12, 3, 20, 29, 9, 25, 32, 14, 34, 20, 0)
s = 51: (0, 8, 6, 15, 34, 7, 56, 18, 19, 22, 13, 0)
s = 52: (0, 5, 4, 22, 19, 9, 22, 40, 16, 31, 17, 0)
s = 53: (0, 9, 6, 23, 33, 6, 32, 39, 13, 35, 14, 0)
s = 54: (0, 10, 4, 24, 29, 11, 64, 21, 15, 34, 12, 0)
s = 55: (0, 5, 3, 21, 33, 11, 31, 29, 12, 35, 23, 0)
s = 56: (0, 9, 3, 19, 14, 17, 26, 29, 22, 40, 23, 0)
s = 57: (0, 6, 6, 19, 18, 8, 55, 30, 12, 27, 18, 0)
s = 58: (0, 12, 4, 15, 22, 9, 31, 27, 19, 56, 23, 0)
s = 59: (0, 11, 4, 18, 25, 8, 39, 31, 18, 33, 30, 0)
s = 60: (0, 10, 3, 20, 18, 5, 47, 33, 15, 45, 14, 0)
s = 61: (0, 6, 3, 24, 48, 8, 36, 24, 15, 20, 20, 0)
s = 62: (0, 12, 4, 23, 17, 8, 31, 43, 18, 39, 14, 0)
s = 63: (0, 7, 6, 16, 26, 8, 39, 31, 30, 33, 14, 0)
s = 64: (0, 7, 3, 20, 27, 8, 58, 20, 21, 23, 16, 0)
s = 65: (0, 6, 5, 23, 28, 9, 30, 42, 13, 17, 19, 0)
s = 66: (0, 7, 3, 32, 19, 6, 37, 40, 23, 24, 22, 0)
s = 67: (0, 14, 6, 23, 27, 5, 29, 25, 20, 20, 26, 0)
s = 68: (0, 11, 5, 25, 23, 9, 29, 38, 12, 18, 12, 0)
s = 69: (0, 5, 4, 14, 19, 13, 21, 20, 34, 36, 19, 0)
s = 70: (0, 9, 4, 20, 14, 7, 32, 28, 14, 25, 18, 0)
s = 71: (0, 12, 6, 20, 27, 8, 37, 42, 22, 32, 15, 0)
s = 72: (0, 9, 3, 17, 39, 8, 47, 18, 12, 36, 17, 0)
s = 73: (0, 12, 4, 21, 35, 13, 34, 20, 11, 24, 21, 0)
s = 74: (0, 11, 3, 22, 18, 7, 49, 34, 12, 45, 23, 0)
s = 75: (0, 10, 5, 21, 18, 10, 32, 22, 20, 23, 11, 0)
s = 76: (0, 7, 3, 15, 36, 8, 47, 31, 15, 37, 20, 0)
s = 77: (0, 10, 6, 25, 15, 8, 21, 22, 14, 35, 19, 0)
s = 78: (0, 8, 5, 22, 32, 6, 65, 48, 14, 19, 21, 0)
s = 79: (0, 6, 5, 22, 17, 7, 34, 28, 12, 39, 11, 0)
s = 80: (0, 9, 5, 10, 34, 8, 21, 26, 14, 23, 20, 0)
s = 81: (0, 7, 4, 18, 16, 8, 35, 19, 11, 30, 11, 0)
s = 82: (0, 7, 4, 16, 28, 7, 35, 36, 28, 27, 31, 0)
s = 83: (0, 8, 3, 16, 18, 6, 19, 18, 13, 29, 17, 0)
s = 84: (0, 14, 5, 31, 22, 14, 24, 42, 19, 39, 17, 0)
s = 85: (0, 7, 5, 19, 24, 8, 40, 38, 11, 47, 17, 0)
s = 86: (0, 7, 7, 25, 38, 11, 34, 30, 14, 23, 11, 0)
s = 87: (0, 9, 5, 10, 26, 7, 33, 35, 21, 33, 26, 0)
s = 88: (0, 7, 4, 25, 24, 10, 47, 20, 17, 25, 27, 0)
s = 89: (0, 7, 6, 16, 25, 8, 59, 26, 21, 41, 23, 0)
s = 90: (0, 12, 4, 14, 23, 8, 47, 29, 16, 48, 14, 0)
s = 91: (0, 9, 4, 19, 25, 6, 34, 17, 22, 34, 24, 0)
s = 92: (0, 10, 7, 17, 36, 7, 30, 22, 11, 19, 19, 0)
s = 93: (0, 17, 5, 14, 28, 6, 22, 18, 14, 19, 20, 0)
s = 94: (0, 7, 4, 13, 17, 6, 52, 38, 17, 43, 18, 0)
s = 95: (0, 10, 3, 20, 26, 10, 51, 46, 20, 25, 11, 0)
s = 96: (0, 10, 4, 20, 23, 8, 33, 30, 22, 27, 25, 0)
s = 97: (0, 14, 5, 14, 23, 8, 38, 37, 21, 28, 26, 0)
s = 98: (0, 8, 5, 26, 33, 11, 28, 21, 16, 38, 15, 0)
s = 99: (0, 10, 5, 10, 24, 16, 25, 19, 16, 39, 15, 0)
s = 100: (0, 10, 4, 15, 30, 8, 41, 31, 13, 33, 16, 0)
s = 101: (0, 7, 5, 22, 45, 8, 35, 31, 10, 27, 13, 0)
s = 102: (0, 11, 5, 14, 29, 6, 33, 31, 23, 17, 22, 0)
s = 103: (0, 6, 3, 15, 27, 9, 29, 27, 11, 32, 24, 0)
s = 104: (0, 9, 4, 23, 23, 10, 54, 31, 15, 20, 24, 0)
s = 105: (0, 7, 5, 25, 16, 8, 37, 19, 17, 19, 18, 0)
s = 106: (0, 9, 5, 16, 21, 7, 41, 18, 16, 30, 12, 0)
s = 107: (0, 13, 5, 19, 24, 6, 31, 25, 11, 43, 19, 0)
s = 108: (0, 10, 6, 18, 15, 8, 35, 28, 10, 33, 18, 0)
s = 109: (0, 7, 3, 12, 15, 12, 41, 19, 20, 23, 14, 0)
s = 110: (0, 9, 4, 19, 27, 8, 55, 24, 28, 31, 24, 0)
s = 111: (0, 9, 7, 26, 29, 10, 47, 20, 18, 16, 27, 0)
s = 112: (0, 6, 4, 16, 16, 13, 24, 29, 19, 28, 25, 0)
s = 113: (0, 7, 3, 16, 27, 8, 28, 28, 17, 34, 18, 0)
s = 114: (0, 11, 4, 24, 27, 11, 20, 30, 14, 39, 16, 0)
s = 115: (0, 7, 5, 18, 33, 17, 26, 39, 20, 21, 21, 0)
s = 116: (0, 6, 4, 26, 37, 8, 28, 26, 22, 23, 28, 0)
s = 117: (0, 9, 7, 23, 26, 8, 33, 22, 18, 25, 21, 0)
s = 118: (0, 10, 4, 16, 32, 6, 25, 30, 14, 29, 11, 0)
s = 119: (0, 10, 6, 17, 21, 11, 43, 17, 17, 29, 28, 0)
s = 120: (0, 12, 6, 17, 19, 10, 34, 23, 15, 23, 12, 0)
s = 121: (0, 8, 5, 11, 35, 5, 22, 37, 23, 20, 23, 0)
s = 122: (0, 6, 5, 20, 14, 14, 36, 26, 17, 38, 13, 0)
s = 123: (0, 11, 3, 16, 37, 10, 25, 29, 13, 37, 28, 0)
s = 124: (0, 7, 3, 18, 14, 9, 35, 21, 16, 30, 21, 0)
s = 125: (0, 8, 5, 10, 25, 12, 32, 34, 21, 33, 21, 0)
s = 126: (0, 6, 5, 19, 28, 8, 37, 34, 15, 29, 24, 0)
s = 127: (0, 11, 4, 28, 27, 7, 37, 31, 10, 31, 19, 0)
s = 128: (0, 10, 3, 11, 21, 6, 53, 28, 11, 24, 11, 0)
s = 129: (0, 7, 4, 20, 20, 7, 26, 47, 10, 45, 20, 0)
s = 130: (0, 11, 5, 11, 24, 10, 28, 33, 25, 26, 13, 0)
s = 131: (0, 9, 3, 12, 21, 11, 33, 22, 11, 36, 33, 0)
s = 132: (0, 11, 4, 18, 21, 11, 41, 45, 21, 39, 25, 0)
s = 133: (0, 9, 3, 19, 33, 12, 55, 25, 18, 18, 16, 0)
s = 134: (0, 9, 3, 12, 15, 9, 33, 20, 21, 32, 28, 0)
s = 135: (0, 10, 4, 10, 21, 12, 34, 29, 17, 30, 21, 0)
s = 136: (0, 5, 5, 20, 17, 9, 42, 28, 14, 19, 17, 0)
s = 137: (0, 12, 4, 17, 21, 7, 33, 17, 20, 34, 11, 0)
s = 138: (0, 7, 6, 14, 33, 6, 48, 22, 11, 26, 19, 0)
s = 139: (0, 8, 3, 22, 35, 15, 33, 20, 15, 39, 21, 0)
s = 140: (0, 8, 4, 22, 27, 9, 35, 22, 15, 36, 19, 0)
s = 141: (0, 6, 4, 14, 18, 8, 33, 35, 21, 28, 16, 0)
s = 142: (0, 7, 5, 22, 26, 7, 31, 26, 21, 36, 20, 0)
s = 143: (0, 10, 4, 29, 27, 8, 20, 50, 21, 44, 17, 0)
s = 144: (0, 7, 4, 15, 31, 8, 25, 22, 14, 32, 12, 0)
s = 145: (0, 10, 3, 15, 29, 11, 19, 27, 16, 27, 22, 0)
s = 146: (0, 9, 3, 20, 28, 11, 29, 24, 15, 22, 13, 0)
s = 147: (0, 6, 6, 17, 31, 8, 20, 26, 13, 26, 22, 0)
s = 148: (0, 8, 4, 29, 16, 10, 20, 33, 14, 24, 18, 0)
s = 149: (0, 12, 5, 14, 37, 10, 26, 31, 14, 46, 18, 0)
s = 150: (0, 10, 8, 30, 15, 8, 44, 24, 23, 22, 24, 0)
s = 151: (0, 6, 5, 21, 32, 7, 22, 18, 27, 29, 23, 0)
s = 152: (0, 8, 7, 27, 19, 9, 29, 25, 10, 18, 26, 0)
s = 153: (0, 6, 7, 16, 27, 6, 47, 46, 14, 21, 14, 0)
s = 154: (0, 7, 8, 21, 29, 9, 37, 36, 12, 25, 17, 0)
s = 155: (0, 8, 5, 24, 33, 11, 23, 46, 22, 35, 18, 0)
s = 156: (0, 6, 3, 12, 22, 9, 54, 34, 16, 42, 21, 0)
s = 157: (0, 12, 4, 14, 23, 8, 35, 23, 24, 30, 15, 0)
s = 158: (0, 5, 4, 20, 30, 11, 23, 19, 23, 34, 20, 0)
s = 159: (0, 6, 6, 23, 37, 5, 41, 39, 18, 46, 13, 0)
s = 160: (0, 10, 5, 14, 27, 11, 27, 19, 14, 32, 13, 0)
s = 161: (0, 7, 5, 23, 14, 9, 35, 27, 15, 40, 20, 0)
s = 162: (0, 9, 7, 18, 25, 8, 41, 29, 20, 25, 13, 0)
s = 163: (0, 10, 7, 17, 29, 12, 43, 32, 19, 21, 19, 0)
s = 164: (0, 12, 6, 27, 16, 5, 33, 29, 21, 39, 18, 0)
s = 165: (0, 15, 3, 16, 18, 9, 26, 44, 13, 42, 20, 0)
s = 166: (0, 9, 4, 34, 19, 13, 29, 34, 19, 27, 14, 0)
s = 167: (0, 13, 4, 16, 29, 12, 23, 34, 13, 35, 22, 0)
s = 168: (0, 11, 5, 19, 26, 6, 49, 18, 12, 25, 19, 0)
s = 169: (0, 8, 3, 15, 23, 14, 29, 33, 19, 46, 16, 0)
s = 170: (0, 7, 3, 21, 33, 12, 50, 20, 13, 27, 18, 0)
s = 171: (0, 9, 3, 22, 36, 7, 52, 19, 12, 26, 26, 0)
s = 172: (0, 6, 7, 18, 29, 13, 57, 32, 17, 43, 16, 0)
s = 173: (0, 7, 5, 17, 27, 6, 44, 28, 16, 26, 15, 0)
s = 174: (0, 9, 5, 24, 24, 7, 43, 37, 9, 26, 20, 0)
s = 175: (0, 9, 5, 21, 18, 8, 43, 24, 16, 26, 19, 0)
s = 176: (0, 10, 3, 15, 25, 6, 25, 21, 11, 25, 18, 0)
s = 177: (0, 5, 4, 14, 30, 7, 25, 26, 22, 46, 24, 0)
s = 178: (0, 7, 4, 18, 23, 9, 43, 26, 26, 44, 29, 0)
s = 179: (0, 10, 7, 19, 19, 13, 25, 24, 15, 30, 14, 0)
s = 180: (0, 9, 3, 14, 42, 13, 34, 31, 17, 24, 25, 0)
s = 181: (0, 11, 5, 18, 27, 9, 28, 27, 25, 20, 27, 0)
s = 182: (0, 8, 5, 16, 22, 6, 43, 18, 15, 46, 15, 0)
s = 183: (0, 9, 6, 20, 24, 9, 38, 18, 15, 31, 13, 0)
s = 184: (0, 6, 4, 12, 17, 8, 41, 28, 17, 27, 15, 0)
s = 185: (0, 10, 6, 27, 19, 9, 51, 17, 17, 41, 13, 0)
s = 186: (0, 9, 4, 24, 20, 8, 26, 33, 18, 43, 16, 0)
s = 187: (0, 8, 5, 19, 31, 12, 30, 30, 14, 20, 21, 0)
s = 188: (0, 6, 4, 15, 23, 11, 40, 21, 21, 30, 21, 0)
s = 189: (0, 7, 6, 15, 23, 9, 32, 20, 29, 31, 14, 0)
s = 190: (0, 15, 4, 15, 27, 9, 32, 40, 12, 22, 25, 0)
s = 191: (0, 11, 3, 22, 19, 9, 41, 32, 12, 33, 19, 0)
s = 192: (0, 7, 4, 11, 20, 10, 26, 23, 25, 28, 24, 0)
s = 193: (0, 8, 4, 18, 39, 10, 34, 17, 10, 31, 11, 0)
s = 194: (0, 9, 4, 10, 15, 9, 34, 24, 17, 20, 14, 0)
s = 195: (0, 6, 4, 19, 22, 15, 28, 27, 24, 25, 12, 0)
s = 196: (0, 7, 3, 13, 19, 6, 61, 21, 17, 26, 24, 0)
s = 197: (0, 10, 7, 26, 14, 6, 64, 30, 21, 36, 12, 0)
s = 198: (0, 7, 4, 16, 18, 10, 40, 36, 14, 30, 16, 0)
s = 199: (0, 5, 5, 11, 30, 9, 33, 35, 17, 30, 15, 0)
s = 200: (0, 12, 3, 24, 18, 15, 27, 43, 15, 43, 19, 0)
------------------------------------------------------------------------
RESOURCE k = 2
s = 1: (0, 21, 7, 7, 35, 7, 60, 70, 27, 16, 29, 0)
s = 2: (0, 37, 8, 8, 29, 12, 39, 59, 15, 24, 25, 0)
s = 3: (0, 19, 8, 9, 44, 9, 60, 61, 27, 17, 31, 0)
s = 4: (0, 31, 12, 6, 40, 10, 45, 46, 29, 28, 30, 0)
s = 5: (0, 20, 6, 8, 52, 6, 57, 89, 21, 34, 21, 0)
s = 6: (0, 32, 6, 9, 70, 9, 46, 39, 26, 25, 22, 0)
s = 7: (0, 32, 10, 9, 50, 11, 43, 58, 20, 19, 28, 0)
s = 8: (0, 24, 9, 8, 80, 11, 55, 83, 18, 14, 37, 0)
s = 9: (0, 35, 8, 6, 53, 9, 42, 86, 21, 31, 32, 0)
s = 10: (0, 40, 7, 8, 67, 9, 27, 103, 23, 31, 26, 0)
s = 11: (0, 24, 5, 12, 52, 9, 40, 75, 16, 18, 23, 0)
s = 12: (0, 21, 5, 6, 51, 11, 56, 48, 13, 24, 23, 0)
s = 13: (0, 28, 5, 7, 46, 11, 33, 113, 21, 17, 20, 0)
s = 14: (0, 32, 9, 6, 35, 10, 44, 55, 30, 27, 30, 0)
s = 15: (0, 38, 8, 12, 38, 10, 27, 57, 17, 37, 27, 0)
s = 16: (0, 23, 5, 6, 42, 7, 57, 56, 23, 20, 17, 0)
s = 17: (0, 41, 10, 7, 39, 8, 44, 57, 23, 15, 24, 0)
s = 18: (0, 26, 8, 6, 52, 12, 70, 51, 27, 23, 31, 0)
s = 19: (0, 39, 7, 13, 57, 11, 28, 55, 18, 15, 39, 0)
s = 20: (0, 29, 9, 5, 45, 9, 35, 49, 25, 28, 19, 0)
s = 21: (0, 24, 8, 6, 58, 13, 43, 86, 17, 27, 21, 0)
s = 22: (0, 22, 9, 11, 35, 5, 47, 87, 15, 35, 31, 0)
s = 23: (0, 43, 6, 6, 46, 7, 69, 65, 30, 19, 17, 0)
s = 24: (0, 27, 9, 8, 49, 6, 52, 82, 19, 15, 27, 0)
s = 25: (0, 26, 4, 7, 41, 8, 63, 36, 18, 48, 38, 0)
s = 26: (0, 37, 8, 10, 59, 6, 68, 39, 29, 17, 21, 0)
s = 27: (0, 38, 10, 9, 26, 10, 71, 51, 25, 28, 36, 0)
s = 28: (0, 28, 10, 11, 30, 5, 82, 116, 17, 18, 30, 0)
s = 29: (0, 25, 6, 8, 65, 10, 45, 59, 20, 24, 29, 0)
s = 30: (0, 22, 9, 9, 71, 10, 37, 66, 28, 27, 46, 0)
s = 31: (0, 26, 10, 15, 55, 10, 42, 63, 17, 16, 18, 0)
s = 32: (0, 20, 9, 5, 30, 7, 71, 80, 18, 17, 20, 0)
s = 33: (0, 32, 8, 10, 48, 13, 48, 83, 30, 37, 32, 0)
s = 34: (0, 24, 7, 11, 38, 10, 37, 75, 20, 33, 22, 0)
s = 35: (0, 32, 8, 9, 38, 11, 41, 58, 27, 21, 32, 0)
s = 36: (0, 23, 7, 6, 46, 7, 47, 66, 28, 15, 31, 0)
s = 37: (0, 26, 5, 12, 74, 7, 46, 78, 13, 42, 19, 0)
s = 38: (0, 28, 9, 7, 56, 8, 26, 67, 15, 23, 27, 0)
s = 39: (0, 33, 7, 13, 43, 7, 62, 50, 29, 15, 27, 0)
s = 40: (0, 31, 14, 10, 34, 6, 44, 62, 23, 26, 28, 0)
s = 41: (0, 26, 6, 8, 37, 7, 63, 52, 14, 17, 29, 0)
s = 42: (0, 25, 6, 10, 44, 8, 59, 62, 12, 17, 25, 0)
s = 43: (0, 28, 6, 11, 30, 12, 33, 47, 17, 22, 25, 0)
s = 44: (0, 23, 6, 7, 39, 9, 32, 37, 22, 41, 30, 0)
s = 45: (0, 22, 9, 10, 38, 11, 57, 52, 19, 32, 27, 0)
s = 46: (0, 34, 8, 7, 74, 10, 48, 48, 24, 16, 22, 0)
s = 47: (0, 29, 11, 10, 69, 6, 49, 77, 13, 17, 39, 0)
s = 48: (0, 20, 7, 6, 40, 9, 37, 58, 21, 34, 29, 0)
s = 49: (0, 35, 5, 6, 45, 12, 32, 69, 31, 18, 24, 0)
s = 50: (0, 42, 4, 9, 57, 8, 32, 71, 17, 27, 30, 0)
s = 51: (0, 26, 9, 7, 67, 6, 72, 41, 23, 17, 19, 0)
s = 52: (0, 17, 6, 10, 38, 8, 28, 89, 20, 25, 25, 0)
s = 53: (0, 31, 10, 10, 65, 6, 41, 87, 16, 28, 20, 0)
s = 54: (0, 35, 6, 11, 58, 10, 82, 46, 19, 27, 18, 0)
s = 55: (0, 17, 5, 9, 65, 10, 39, 64, 15, 28, 34, 0)
s = 56: (0, 29, 5, 9, 28, 15, 33, 64, 28, 32, 34, 0)
s = 57: (0, 19, 10, 9, 36, 7, 70, 66, 15, 21, 26, 0)
s = 58: (0, 42, 7, 7, 43, 8, 40, 60, 23, 45, 35, 0)
s = 59: (0, 36, 6, 8, 50, 7, 50, 69, 23, 26, 45, 0)
s = 60: (0, 34, 5, 9, 35, 5, 61, 74, 19, 36, 20, 0)
s = 61: (0, 19, 6, 11, 95, 7, 46, 54, 19, 16, 29, 0)
s = 62: (0, 39, 6, 10, 33, 7, 39, 97, 23, 31, 20, 0)
s = 63: (0, 22, 11, 8, 51, 7, 50, 69, 37, 26, 21, 0)
s = 64: (0, 25, 6, 9, 53, 7, 75, 44, 27, 18, 24, 0)
s = 65: (0, 20, 8, 11, 56, 8, 39, 93, 16, 14, 28, 0)
s = 66: (0, 23, 4, 15, 37, 6, 48, 90, 28, 20, 33, 0)
s = 67: (0, 49, 11, 11, 54, 5, 37, 57, 25, 16, 38, 0)
s = 68: (0, 36, 8, 12, 46, 8, 37, 84, 15, 14, 18, 0)
s = 69: (0, 18, 7, 7, 38, 11, 27, 44, 42, 29, 28, 0)
s = 70: (0, 29, 7, 9, 28, 6, 41, 63, 17, 20, 27, 0)
s = 71: (0, 39, 10, 9, 53, 7, 47, 94, 27, 26, 22, 0)
s = 72: (0, 31, 5, 8, 77, 7, 61, 41, 15, 29, 25, 0)
s = 73: (0, 41, 6, 10, 69, 11, 44, 43, 13, 20, 31, 0)
s = 74: (0, 37, 4, 10, 35, 7, 63, 77, 15, 36, 35, 0)
s = 75: (0, 35, 9, 10, 36, 9, 42, 50, 25, 19, 17, 0)
s = 76: (0, 22, 4, 7, 72, 7, 61, 68, 19, 30, 30, 0)
s = 77: (0, 33, 10, 11, 30, 7, 27, 49, 17, 28, 28, 0)
s = 78: (0, 28, 8, 10, 64, 6, 84, 108, 17, 15, 31, 0)
s = 79: (0, 20, 8, 10, 33, 6, 43, 63, 15, 32, 16, 0)
s = 80: (0, 29, 8, 5, 68, 7, 27, 58, 18, 19, 30, 0)
s = 81: (0, 23, 7, 8, 31, 7, 45, 42, 14, 24, 16, 0)
s = 82: (0, 22, 6, 8, 55, 7, 44, 80, 35, 22, 46, 0)
s = 83: (0, 28, 5, 8, 35, 5, 25, 39, 16, 23, 26, 0)
s = 84: (0, 47, 9, 14, 44, 12, 30, 94, 23, 31, 26, 0)
s = 85: (0, 22, 8, 9, 47, 7, 51, 85, 14, 38, 25, 0)
s = 86: (0, 23, 11, 11, 75, 10, 44, 67, 18, 19, 17, 0)
s = 87: (0, 31, 8, 5, 52, 6, 42, 78, 26, 27, 39, 0)
s = 88: (0, 25, 6, 11, 48, 9, 60, 45, 22, 20, 40, 0)
s = 89: (0, 22, 11, 8, 49, 7, 76, 59, 26, 33, 34, 0)
s = 90: (0, 42, 6, 6, 46, 7, 60, 65, 19, 38, 21, 0)
s = 91: (0, 30, 7, 9, 50, 6, 43, 37, 27, 27, 35, 0)
s = 92: (0, 34, 11, 8, 72, 7, 39, 48, 14, 16, 28, 0)
s = 93: (0, 59, 8, 6, 55, 5, 28, 40, 18, 16, 29, 0)
s = 94: (0, 23, 6, 6, 34, 6, 66, 85, 22, 35, 26, 0)
s = 95: (0, 35, 6, 9, 52, 9, 66, 103, 25, 20, 16, 0)
s = 96: (0, 35, 6, 9, 46, 7, 42, 67, 27, 22, 37, 0)
s = 97: (0, 48, 9, 6, 46, 7, 49, 84, 26, 22, 38, 0)
s = 98: (0, 27, 9, 12, 65, 10, 36, 46, 19, 31, 22, 0)
s = 99: (0, 35, 9, 5, 48, 14, 32, 43, 20, 31, 23, 0)
s = 100: (0, 34, 6, 7, 59, 7, 52, 68, 17, 26, 23, 0)
s = 101: (0, 23, 8, 10, 89, 8, 45, 70, 13, 21, 20, 0)
s = 102: (0, 36, 8, 7, 58, 5, 43, 68, 29, 14, 32, 0)
s = 103: (0, 19, 5, 7, 54, 8, 37, 59, 14, 26, 35, 0)
s = 104: (0, 31, 7, 11, 45, 9, 69, 70, 19, 16, 36, 0)
s = 105: (0, 22, 8, 11, 31, 8, 48, 42, 21, 16, 27, 0)
s = 106: (0, 29, 8, 7, 41, 6, 53, 40, 20, 24, 17, 0)
s = 107: (0, 45, 8, 9, 48, 6, 40, 56, 13, 34, 28, 0)
s = 108: (0, 34, 10, 8, 29, 7, 45, 62, 12, 26, 26, 0)
s = 109: (0, 22, 6, 5, 29, 10, 52, 41, 25, 18, 21, 0)
s = 110: (0, 29, 7, 9, 54, 7, 70, 53, 35, 25, 36, 0)
s = 111: (0, 29, 11, 12, 57, 9, 60, 43, 22, 13, 41, 0)
s = 112: (0, 19, 6, 7, 32, 12, 31, 65, 23, 22, 38, 0)
s = 113: (0, 25, 5, 7, 54, 7, 36, 62, 21, 27, 27, 0)
s = 114: (0, 37, 6, 11, 53, 10, 26, 66, 17, 31, 24, 0)
s = 115: (0, 25, 9, 8, 66, 15, 33, 86, 25, 17, 31, 0)
s = 116: (0, 21, 7, 12, 74, 7, 36, 58, 27, 19, 42, 0)
s = 117: (0, 32, 12, 11, 51, 7, 43, 49, 22, 20, 31, 0)
s = 118: (0, 33, 6, 8, 63, 5, 32, 68, 18, 23, 16, 0)
s = 119: (0, 35, 10, 8, 42, 10, 55, 39, 21, 23, 42, 0)
s = 120: (0, 39, 10, 8, 37, 9, 43, 52, 19, 18, 18, 0)
s = 121: (0, 25, 8, 5, 70, 5, 28, 84, 29, 16, 35, 0)
s = 122: (0, 20, 9, 9, 28, 13, 46, 58, 21, 30, 19, 0)
s = 123: (0, 36, 5, 8, 74, 9, 32, 65, 16, 30, 42, 0)
s = 124: (0, 24, 5, 8, 28, 8, 45, 47, 20, 24, 32, 0)
s = 125: (0, 28, 9, 5, 49, 10, 42, 77, 26, 26, 31, 0)
s = 126: (0, 21, 8, 9, 56, 7, 47, 75, 19, 24, 35, 0)
s = 127: (0, 36, 6, 13, 53, 6, 47, 68, 12, 25, 29, 0)
s = 128: (0, 32, 5, 5, 41, 6, 69, 63, 14, 20, 16, 0)
s = 129: (0, 24, 7, 9, 40, 6, 33, 104, 12, 36, 29, 0)
s = 130: (0, 38, 8, 5, 48, 9, 36, 75, 31, 21, 20, 0)
s = 131: (0, 32, 6, 6, 41, 10, 42, 50, 13, 29, 49, 0)
s = 132: (0, 37, 6, 8, 42, 10, 53, 100, 26, 31, 38, 0)
s = 133: (0, 32, 5, 9, 66, 11, 70, 55, 22, 15, 24, 0)
s = 134: (0, 29, 5, 6, 29, 8, 42, 45, 26, 26, 42, 0)
s = 135: (0, 35, 7, 5, 42, 11, 43, 65, 22, 24, 31, 0)
s = 136: (0, 18, 9, 9, 34, 8, 54, 63, 17, 16, 26, 0)
s = 137: (0, 41, 7, 8, 41, 6, 42, 38, 25, 27, 16, 0)
s = 138: (0, 24, 9, 6, 65, 6, 61, 50, 14, 21, 28, 0)
s = 139: (0, 28, 5, 10, 69, 14, 42, 44, 18, 31, 31, 0)
s = 140: (0, 27, 7, 10, 53, 8, 44, 49, 19, 29, 28, 0)
s = 141: (0, 20, 7, 6, 36, 7, 43, 78, 26, 23, 23, 0)
s = 142: (0, 25, 8, 10, 51, 6, 40, 58, 26, 29, 30, 0)
s = 143: (0, 35, 7, 13, 54, 7, 26, 112, 26, 36, 25, 0)
s = 144: (0, 22, 7, 7, 61, 7, 32, 48, 17, 26, 18, 0)
s = 145: (0, 35, 6, 7, 57, 9, 25, 61, 20, 22, 33, 0)
s = 146: (0, 29, 4, 9, 55, 10, 37, 54, 19, 17, 19, 0)
s = 147: (0, 18, 11, 8, 61, 7, 25, 59, 16, 21, 33, 0)
s = 148: (0, 28, 7, 13, 31, 9, 26, 73, 18, 19, 26, 0)
s = 149: (0, 40, 8, 6, 74, 9, 34, 70, 17, 37, 26, 0)
s = 150: (0, 33, 13, 14, 30, 7, 57, 53, 29, 18, 35, 0)
s = 151: (0, 21, 8, 9, 63, 7, 28, 40, 34, 23, 34, 0)
s = 152: (0, 26, 12, 12, 37, 8, 37, 57, 12, 14, 39, 0)
s = 153: (0, 20, 11, 7, 53, 6, 60, 102, 17, 17, 21, 0)
s = 154: (0, 23, 13, 10, 58, 8, 47, 81, 15, 20, 25, 0)
s = 155: (0, 25, 8, 11, 66, 10, 29, 104, 27, 28, 27, 0)
s = 156: (0, 21, 5, 6, 44, 8, 69, 76, 20, 34, 32, 0)
s = 157: (0, 40, 6, 6, 45, 7, 44, 52, 30, 24, 22, 0)
s = 158: (0, 17, 6, 9, 59, 10, 29, 42, 29, 27, 30, 0)
s = 159: (0, 18, 10, 10, 73, 5, 53, 87, 22, 37, 19, 0)
s = 160: (0, 33, 8, 6, 54, 9, 34, 42, 17, 25, 20, 0)
s = 161: (0, 23, 8, 11, 28, 8, 45, 61, 19, 32, 29, 0)
s = 162: (0, 29, 11, 8, 49, 8, 52, 64, 24, 20, 20, 0)
s = 163: (0, 33, 11, 8, 58, 11, 55, 72, 24, 17, 28, 0)
s = 164: (0, 42, 10, 12, 32, 5, 42, 65, 26, 31, 27, 0)
s = 165: (0, 50, 4, 7, 36, 8, 33, 98, 16, 34, 29, 0)
s = 166: (0, 30, 7, 15, 37, 11, 37, 76, 24, 22, 20, 0)
s = 167: (0, 44, 7, 8, 58, 11, 30, 76, 16, 28, 33, 0)
s = 168: (0, 38, 9, 9, 52, 6, 63, 39, 15, 20, 28, 0)
s = 169: (0, 27, 5, 7, 45, 13, 38, 73, 23, 37, 24, 0)
s = 170: (0, 23, 5, 10, 65, 11, 64, 44, 16, 21, 26, 0)
s = 171: (0, 31, 5, 10, 71, 6, 67, 43, 14, 21, 39, 0)
s = 172: (0, 20, 12, 8, 57, 11, 73, 71, 21, 34, 24, 0)
s = 173: (0, 23, 9, 8, 53, 6, 57, 63, 20, 21, 22, 0)
s = 174: (0, 29, 9, 11, 47, 6, 55, 82, 12, 21, 30, 0)
s = 175: (0, 30, 8, 10, 36, 7, 55, 53, 20, 21, 28, 0)
s = 176: (0, 32, 5, 7, 50, 6, 32, 47, 13, 20, 26, 0)
s = 177: (0, 17, 6, 6, 59, 6, 32, 57, 27, 37, 35, 0)
s = 178: (0, 23, 7, 8, 46, 8, 55, 58, 33, 36, 43, 0)
s = 179: (0, 33, 11, 9, 37, 12, 32, 54, 19, 24, 21, 0)
s = 180: (0, 30, 4, 7, 83, 12, 43, 69, 21, 20, 37, 0)
s = 181: (0, 37, 8, 8, 54, 8, 36, 60, 31, 16, 40, 0)
s = 182: (0, 25, 8, 7, 43, 5, 55, 39, 19, 37, 23, 0)
s = 183: (0, 30, 10, 9, 48, 8, 49, 41, 19, 25, 20, 0)
s = 184: (0, 19, 6, 6, 33, 7, 53, 62, 21, 22, 22, 0)
s = 185: (0, 32, 10, 12, 38, 8, 66, 37, 21, 33, 19, 0)
s = 186: (0, 31, 6, 11, 40, 7, 33, 74, 23, 35, 24, 0)
s = 187: (0, 28, 8, 9, 62, 11, 38, 67, 17, 16, 31, 0)
s = 188: (0, 20, 7, 7, 45, 10, 51, 46, 26, 24, 31, 0)
s = 189: (0, 22, 10, 7, 46, 8, 42, 45, 36, 25, 21, 0)
s = 190: (0, 50, 6, 7, 54, 8, 40, 89, 15, 17, 37, 0)
s = 191: (0, 36, 6, 10, 37, 8, 53, 71, 15, 26, 28, 0)
s = 192: (0, 23, 7, 5, 39, 9, 33, 51, 31, 23, 35, 0)
s = 193: (0, 27, 6, 8, 78, 9, 43, 38, 12, 25, 16, 0)
s = 194: (0, 31, 6, 5, 30, 8, 43, 53, 21, 16, 21, 0)
s = 195: (0, 21, 6, 9, 43, 13, 36, 60, 29, 20, 18, 0)
s = 196: (0, 24, 5, 6, 37, 6, 78, 46, 21, 21, 36, 0)
s = 197: (0, 33, 12, 12, 27, 5, 82, 67, 26, 29, 18, 0)
s = 198: (0, 23, 7, 7, 36, 9, 51, 80, 17, 24, 24, 0)
s = 199: (0, 15, 9, 5, 59, 8, 42, 79, 21, 24, 22, 0)
s = 200: (0, 40, 5, 11, 35, 14, 34, 97, 18, 35, 28, 0)
************************************************************************
ES/LS-VALUES:
jobnr.   ES(i)    LS(i)
------------------------------------------------------------------------
  0        0        0
  1        0       63
  2        0       47
  3        0       61
  4        2       49
  5        3       73
  6        3       65
  7       11       59
  8       24       75
  9       24       72
 10       11       78
 11       36       84
************************************************************************
BIG-M-VALUES:
M1 = 50, M2 = 180
************************************************************************
